param set_len = 36;
param target_sum = 9940399493;
param values := [1] 514890536 [2] 298846421 [3] 854415122 [4] 316183760 [5] 384756336 [6] 210321274 [7] 1050623756 [8] 413201597 [9] 367696371 [10] 887948121 [11] 1026173543 [12] 738255308 [13] 445871777 [14] 13563715 [15] 223087133 [16] 338124003 [17] 699791036 [18] 945110708 [19] 7753717 [20] 1024414891 [21] 687576719 [22] 487688231 [23] 305864990 [24] 366065905 [25] 635024173 [26] 130159633 [27] 349377826 [28] 374667965 [29] 782964888 [30] 591581494 [31] 738316676 [32] 1030882186 [33] 754077126 [34] 796803246 [35] 801314704 [36] 107625095 ;
